5 5
1 77 2 85 4 45 0 45 3 79
0 84 1 84 2 45 3 55 4 59
4 5 3 32 0 6 2 94 1 26
0 37 1 13 3 93 2 69 4 25
4 13 0 88 3 95 1 20 2 72
-1
0 1 3 4 5
0 1 2 4 5
0 1 2 3 5
0 1 3 5
0 1 2 3 5
-2
94 303 361 342
108 199 349 358
5 54 66 236
41 208 371
13 138 254 335

444 10
15 12 5 21 3
0 16 6 14 23
13 1 7 18 24
11 17 22 8 4
10 20 2 19 9
